c Sudoku solution
p cnf 729 0
131 0
172 0
197 0
213 0
247 0
265 0
274 0
281 0
383 0
467 0
579 0
592 0
622 0
644 0
666 0
673 0
688 0
587 0
691 0
739 0
821 0
864 0
878 0
893 0
941 0
771 0
977 0
968 0
984 0
494 0
316 0
375 0
476 0
485 0
163 0
561 0
411 0
351 0
154 0
762 0
786 0
882 0
795 0
999 0
743 0
757 0
912 0
327 0
334 0
232 0
452 0
553 0
342 0
369 0
398 0
258 0
146 0
189 0
296 0
229 0
619 0
637 0
449 0
548 0
655 0
817 0
438 0
423 0
933 0
845 0
956 0
859 0
836 0
925 0
128 0
115 0
514 0
718 0
724 0
526 0
535 0
